La216 Mn216 O648
1.0
  23.8765068053999983    0.0000000000000000    0.0000000000000000
   0.3022303575000000   23.7320276525999994    0.0000000000000000
  -0.2471382714000000   -0.2643363546000000   23.9742449961000013
La Mn O
216 216 648
direct
   0.0057668096248801    0.0081046943792968    0.0021080949163664 La
   0.0057668096160988    0.0081046943873990    0.3354414282205017 La
   0.0057668096077435    0.0081046943959658    0.6687747615663484 La
   0.0057668096040456    0.3414380277042026    0.0021080949163664 La
   0.0057668095952644    0.3414380277123050    0.3354414282205017 La
   0.0057668095869091    0.3414380277208716    0.6687747615663484 La
   0.0057668096245600    0.6747713610712457    0.0021080949163664 La
   0.0057668096163122    0.6747713610372108    0.3354414282205017 La
   0.0057668096079568    0.6747713610457774    0.6687747615663484 La
   0.3391001429247076    0.0081046943792968    0.0021080949163664 La
   0.3391001429578087    0.0081046943873990    0.3354414282205017 La
   0.3391001429494532    0.0081046943959658    0.6687747615663484 La
   0.3391001429457553    0.3414380277042026    0.0021080949163664 La
   0.3391001429369742    0.3414380277123050    0.3354414282205017 La
   0.3391001429286188    0.3414380277208716    0.6687747615663484 La
   0.3391001429243877    0.6747713610712457    0.0021080949163664 La
   0.3391001429580220    0.6747713610372108    0.3354414282205017 La
   0.3391001429496666    0.6747713610457774    0.6687747615663484 La
   0.6724334762664175    0.0081046943792968    0.0021080949163664 La
   0.6724334762576361    0.0081046943873990    0.3354414282205017 La
   0.6724334762911629    0.0081046943959658    0.6687747615663484 La
   0.6724334762874654    0.3414380277042026    0.0021080949163664 La
   0.6724334762786842    0.3414380277123050    0.3354414282205017 La
   0.6724334762703286    0.3414380277208716    0.6687747615663484 La
   0.6724334762660974    0.6747713610712457    0.0021080949163664 La
   0.6724334762578495    0.6747713610372108    0.3354414282205017 La
   0.6724334762913763    0.6747713610457774    0.6687747615663484 La
   0.1759492357753961    0.0055820501292787    0.0026856844088510 La
   0.1759492357671484    0.0055820500952438    0.3360190177129862 La
   0.1759492357587929    0.0055820501038106    0.6693523510588328 La
   0.1759492357545617    0.3389153834541846    0.0026856844088510 La
   0.1759492357457805    0.3389153834622868    0.3360190177129862 La
   0.1759492357379585    0.3389153834287165    0.6693523510588328 La
   0.1759492357756094    0.6722487167790905    0.0026856844088510 La
   0.1759492357668282    0.6722487167871928    0.3360190177129862 La
   0.1759492357584729    0.6722487167957595    0.6693523510588328 La
   0.5092825690752237    0.0055820501292787    0.0026856844088510 La
   0.5092825691088582    0.0055820500952438    0.3360190177129862 La
   0.5092825691005026    0.0055820501038106    0.6693523510588328 La
   0.5092825690962716    0.3389153834541846    0.0026856844088510 La
   0.5092825690874903    0.3389153834622868    0.3360190177129862 La
   0.5092825690796683    0.3389153834287165    0.6693523510588328 La
   0.5092825690754370    0.6722487167790905    0.0026856844088510 La
   0.5092825691085379    0.6722487167871928    0.3360190177129862 La
   0.5092825691001827    0.6722487167957595    0.6693523510588328 La
   0.8426159024169334    0.0055820501292787    0.0026856844088510 La
   0.8426159024086857    0.0055820500952438    0.3360190177129862 La
   0.8426159024422123    0.0055820501038106    0.6693523510588328 La
   0.8426159024379811    0.3389153834541846    0.0026856844088510 La
   0.8426159024292000    0.3389153834622868    0.3360190177129862 La
   0.8426159024213778    0.3389153834287165    0.6693523510588328 La
   0.8426159024171467    0.6722487167790905    0.0026856844088510 La
   0.8426159024083655    0.6722487167871928    0.3360190177129862 La
   0.8426159024418923    0.6722487167957595    0.6693523510588328 La
   0.0085004990091642    0.1718554695644062    0.0014845553637159 La
   0.0085004990427986    0.1718554695303713    0.3348178886678512 La
   0.0085004990344432    0.1718554695389381    0.6681512220136978 La
   0.0085004990302120    0.5051888028893121    0.0014845553637159 La
   0.0085004990214308    0.5051888028974142    0.3348178886678512 La
   0.0085004990136088    0.5051888028638440    0.6681512220136978 La
   0.0085004990093776    0.8385221362142179    0.0014845553637159 La
   0.0085004990424785    0.8385221362223200    0.3348178886678512 La
   0.0085004990341232    0.8385221362308870    0.6681512220136978 La
   0.3418338323508741    0.1718554695644062    0.0014845553637159 La
   0.3418338323426262    0.1718554695303713    0.3348178886678512 La
   0.3418338323761529    0.1718554695389381    0.6681512220136978 La
   0.3418338323719217    0.5051888028893121    0.0014845553637159 La
   0.3418338323631405    0.5051888028974142    0.3348178886678512 La
   0.3418338323553185    0.5051888028638440    0.6681512220136978 La
   0.3418338323510874    0.8385221362142179    0.0014845553637159 La
   0.3418338323423060    0.8385221362223200    0.3348178886678512 La
   0.3418338323758329    0.8385221362308870    0.6681512220136978 La
   0.6751671656925837    0.1718554695644062    0.0014845553637159 La
   0.6751671656843360    0.1718554695303713    0.3348178886678512 La
   0.6751671656759805    0.1718554695389381    0.6681512220136978 La
   0.6751671657136313    0.5051888028893121    0.0014845553637159 La
   0.6751671657048504    0.5051888028974142    0.3348178886678512 La
   0.6751671656970284    0.5051888028638440    0.6681512220136978 La
   0.6751671656927971    0.8385221362142179    0.0014845553637159 La
   0.6751671656840159    0.8385221362223200    0.3348178886678512 La
   0.6751671656756606    0.8385221362308870    0.6681512220136978 La
   0.3291467651651558    0.3242212335404718    0.1680383880975334 La
   0.3291467651573338    0.3242212335069015    0.5013717214433800 La
   0.3291467651904348    0.3242212335150038    0.8347050547475153 La
   0.3291467651862036    0.6575545668653776    0.1680383880975334 La
   0.3291467651778483    0.6575545668739446    0.5013717214433800 La
   0.3291467651696005    0.6575545668399095    0.8347050547475153 La
   0.3291467651653692    0.9908879001902837    0.1680383880975334 La
   0.3291467651570139    0.9908879001988505    0.5013717214433800 La
   0.3291467651901147    0.9908879002069526    0.8347050547475153 La
   0.6624800985068654    0.3242212335404718    0.1680383880975334 La
   0.6624800984990438    0.3242212335069015    0.5013717214433800 La
   0.6624800984902625    0.3242212335150038    0.8347050547475153 La
   0.6624800984860311    0.6575545668653776    0.1680383880975334 La
   0.6624800985195580    0.6575545668739446    0.5013717214433800 La
   0.6624800985113102    0.6575545668399095    0.8347050547475153 La
   0.6624800985070788    0.9908879001902837    0.1680383880975334 La
   0.6624800984987236    0.9908879001988505    0.5013717214433800 La
   0.6624800984899425    0.9908879002069526    0.8347050547475153 La
   0.9958134318485753    0.3242212335404718    0.1680383880975334 La
   0.9958134318407534    0.3242212335069015    0.5013717214433800 La
   0.9958134318319724    0.3242212335150038    0.8347050547475153 La
   0.9958134318277408    0.6575545668653776    0.1680383880975334 La
   0.9958134318193855    0.6575545668739446    0.5013717214433800 La
   0.9958134318530200    0.6575545668399095    0.8347050547475153 La
   0.9958134318487887    0.9908879001902837    0.1680383880975334 La
   0.9958134318404332    0.9908879001988505    0.5013717214433800 La
   0.9958134318316523    0.9908879002069526    0.8347050547475153 La
   0.1725233594419329    0.1757477521842133    0.0019733559495907 La
   0.1725233594754598    0.1757477521927801    0.3353066892954374 La
   0.1725233594671044    0.1757477522013469    0.6686400226412842 La
   0.1725233594629807    0.5090810855091190    0.0019733559495907 La
   0.1725233594546253    0.5090810855176859    0.3353066892954374 La
   0.1725233594462700    0.5090810855262529    0.6686400226412842 La
   0.1725233594416129    0.8424144188761621    0.0019733559495907 La
   0.1725233594756732    0.8424144188425920    0.3353066892954374 La
   0.1725233594673178    0.8424144188511588    0.6686400226412842 La
   0.5058566927836425    0.1757477521842133    0.0019733559495907 La
   0.5058566927752873    0.1757477521927801    0.3353066892954374 La
   0.5058566928088143    0.1757477522013469    0.6686400226412842 La
   0.5058566928046905    0.5090810855091190    0.0019733559495907 La
   0.5058566927963352    0.5090810855176859    0.3353066892954374 La
   0.5058566927879797    0.5090810855262529    0.6686400226412842 La
   0.5058566927833227    0.8424144188761621    0.0019733559495907 La
   0.5058566927755007    0.8424144188425920    0.3353066892954374 La
   0.5058566928090276    0.8424144188511588    0.6686400226412842 La
   0.8391900261253523    0.1757477521842133    0.0019733559495907 La
   0.8391900261169971    0.1757477521927801    0.3353066892954374 La
   0.8391900261086419    0.1757477522013469    0.6686400226412842 La
   0.8391900261045181    0.5090810855091190    0.0019733559495907 La
   0.8391900261380451    0.5090810855176859    0.3353066892954374 La
   0.8391900261296896    0.5090810855262529    0.6686400226412842 La
   0.8391900261250322    0.8424144188761621    0.0019733559495907 La
   0.8391900261172105    0.8424144188425920    0.3353066892954374 La
   0.8391900261088552    0.8424144188511588    0.6686400226412842 La
   0.1598175962559705    0.3281447822375801    0.1685234109627745 La
   0.1598175962900307    0.3281447822040098    0.5018567443086211 La
   0.1598175962812494    0.3281447822121120    0.8351900776127565 La
   0.1598175962770182    0.6614781155624859    0.1685234109627745 La
   0.1598175962686629    0.6614781155710528    0.5018567443086211 La
   0.1598175962604150    0.6614781155370180    0.8351900776127565 La
   0.1598175962561838    0.9948114488873917    0.1685234109627745 La
   0.1598175962897107    0.9948114488959588    0.5018567443086211 La
   0.1598175962809294    0.9948114489040610    0.8351900776127565 La
   0.4931509295976803    0.3281447822375801    0.1685234109627745 La
   0.4931509295898582    0.3281447822040098    0.5018567443086211 La
   0.4931509296229593    0.3281447822121120    0.8351900776127565 La
   0.4931509296187280    0.6614781155624859    0.1685234109627745 La
   0.4931509296103726    0.6614781155710528    0.5018567443086211 La
   0.4931509296021248    0.6614781155370180    0.8351900776127565 La
   0.4931509295978936    0.9948114488873917    0.1685234109627745 La
   0.4931509295895383    0.9948114488959588    0.5018567443086211 La
   0.4931509296226391    0.9948114489040610    0.8351900776127565 La
   0.8264842629393900    0.3281447822375801    0.1685234109627745 La
   0.8264842629315681    0.3281447822040098    0.5018567443086211 La
   0.8264842629227865    0.3281447822121120    0.8351900776127565 La
   0.8264842629604376    0.6614781155624859    0.1685234109627745 La
   0.8264842629520824    0.6614781155710528    0.5018567443086211 La
   0.8264842629438344    0.6614781155370180    0.8351900776127565 La
   0.8264842629396034    0.9948114488873917    0.1685234109627745 La
   0.8264842629312480    0.9948114488959588    0.5018567443086211 La
   0.8264842629224667    0.9948114489040610    0.8351900776127565 La
   0.3257124622614557    0.1610761980394765    0.1673330863454761 La
   0.3257124622532078    0.1610761980054415    0.5006664196496114 La
   0.3257124622448525    0.1610761980140083    0.8339997529954581 La
   0.3257124622825034    0.4944095313643823    0.1673330863454761 La
   0.3257124622737221    0.4944095313724846    0.5006664196496114 La
   0.3257124622659002    0.4944095313389142    0.8339997529954581 La
   0.3257124622616689    0.8277428646892883    0.1673330863454761 La
   0.3257124622528877    0.8277428646973906    0.5006664196496114 La
   0.3257124622445324    0.8277428647059573    0.8339997529954581 La
   0.6590457956031652    0.1610761980394765    0.1673330863454761 La
   0.6590457955949174    0.1610761980054415    0.5006664196496114 La
   0.6590457955865622    0.1610761980140083    0.8339997529954581 La
   0.6590457955823307    0.4944095313643823    0.1673330863454761 La
   0.6590457956154320    0.4944095313724846    0.5006664196496114 La
   0.6590457956076100    0.4944095313389142    0.8339997529954581 La
   0.6590457956033786    0.8277428646892883    0.1673330863454761 La
   0.6590457955945974    0.8277428646973906    0.5006664196496114 La
   0.6590457955862422    0.8277428647059573    0.8339997529954581 La
   0.9923791289448750    0.1610761980394765    0.1673330863454761 La
   0.9923791289366274    0.1610761980054415    0.5006664196496114 La
   0.9923791289282720    0.1610761980140083    0.8339997529954581 La
   0.9923791289240406    0.4944095313643823    0.1673330863454761 La
   0.9923791289152596    0.4944095313724846    0.5006664196496114 La
   0.9923791289493196    0.4944095313389142    0.8339997529954581 La
   0.9923791289450882    0.8277428646892883    0.1673330863454761 La
   0.9923791289363073    0.8277428646973906    0.5006664196496114 La
   0.9923791289279519    0.8277428647059573    0.8339997529954581 La
   0.1625545720133167    0.1585730512915755    0.1679151256965493 La
   0.1625545720045354    0.1585730512996777    0.5012484590006846 La
   0.1625545720380623    0.1585730513082445    0.8345817923465311 La
   0.1625545720343644    0.4919063846164813    0.1679151256965493 La
   0.1625545720255832    0.4919063846245835    0.5012484590006846 La
   0.1625545720172279    0.4919063846331504    0.8345817923465311 La
   0.1625545720135300    0.8252397179413873    0.1679151256965493 La
   0.1625545720047488    0.8252397179494895    0.5012484590006846 La
   0.1625545720382756    0.8252397179580563    0.8345817923465311 La
   0.4958879053550265    0.1585730512915755    0.1679151256965493 La
   0.4958879053462452    0.1585730512996777    0.5012484590006846 La
   0.4958879053378899    0.1585730513082445    0.8345817923465311 La
   0.4958879053760742    0.4919063846164813    0.1679151256965493 La
   0.4958879053672930    0.4919063846245835    0.5012484590006846 La
   0.4958879053589377    0.4919063846331504    0.8345817923465311 La
   0.4958879053552399    0.8252397179413873    0.1679151256965493 La
   0.4958879053464586    0.8252397179494895    0.5012484590006846 La
   0.4958879053381032    0.8252397179580563    0.8345817923465311 La
   0.8292212386967363    0.1585730512915755    0.1679151256965493 La
   0.8292212386879549    0.1585730512996777    0.5012484590006846 La
   0.8292212386795997    0.1585730513082445    0.8345817923465311 La
   0.8292212386759016    0.4919063846164813    0.1679151256965493 La
   0.8292212387090029    0.4919063846245835    0.5012484590006846 La
   0.8292212387006475    0.4919063846331504    0.8345817923465311 La
   0.8292212386969494    0.8252397179413873    0.1679151256965493 La
   0.8292212386881684    0.8252397179494895    0.5012484590006846 La
   0.8292212386798130    0.8252397179580563    0.8345817923465311 La
   0.0841635962144093    0.0833406646953267    0.0850029885959500 Mn
   0.0841635962475103    0.0833406647034289    0.4183363219000853 Mn
   0.0841635962391549    0.0833406647119958    0.7516696552459320 Mn
   0.0841635962354570    0.4166739980202326    0.0850029885959500 Mn
   0.0841635962266758    0.4166739980283348    0.4183363219000853 Mn
   0.0841635962183205    0.4166739980369016    0.7516696552459320 Mn
   0.0841635962140893    0.7500073313872756    0.0850029885959500 Mn
   0.0841635962477236    0.7500073313532408    0.4183363219000853 Mn
   0.0841635962393682    0.7500073313618075    0.7516696552459320 Mn
   0.4174969295561192    0.0833406646953267    0.0850029885959500 Mn
   0.4174969295473378    0.0833406647034289    0.4183363219000853 Mn
   0.4174969295808646    0.0833406647119958    0.7516696552459320 Mn
   0.4174969295771668    0.4166739980202326    0.0850029885959500 Mn
   0.4174969295683855    0.4166739980283348    0.4183363219000853 Mn
   0.4174969295600301    0.4166739980369016    0.7516696552459320 Mn
   0.4174969295557990    0.7500073313872756    0.0850029885959500 Mn
   0.4174969295475511    0.7500073313532408    0.4183363219000853 Mn
   0.4174969295810780    0.7500073313618075    0.7516696552459320 Mn
   0.7508302628978288    0.0833406646953267    0.0850029885959500 Mn
   0.7508302628890478    0.0833406647034289    0.4183363219000853 Mn
   0.7508302628806922    0.0833406647119958    0.7516696552459320 Mn
   0.7508302629188767    0.4166739980202326    0.0850029885959500 Mn
   0.7508302629100955    0.4166739980283348    0.4183363219000853 Mn
   0.7508302629017398    0.4166739980369016    0.7516696552459320 Mn
   0.7508302628975086    0.7500073313872756    0.0850029885959500 Mn
   0.7508302628892612    0.7500073313532408    0.4183363219000853 Mn
   0.7508302628809056    0.7500073313618075    0.7516696552459320 Mn
   0.2508286237759176    0.0833293199483298    0.0850059588667557 Mn
   0.2508286237675623    0.0833293199568966    0.4183392922126023 Mn
   0.2508286237592069    0.0833293199654634    0.7516726255584492 Mn
   0.2508286237550832    0.4166626532732357    0.0850059588667557 Mn
   0.2508286237886100    0.4166626532818025    0.4183392922126023 Mn
   0.2508286237802547    0.4166626532903694    0.7516726255584492 Mn
   0.2508286237755977    0.7499959866402788    0.0850059588667557 Mn
   0.2508286237677756    0.7499959866067082    0.4183392922126023 Mn
   0.2508286237594203    0.7499959866152753    0.7516726255584492 Mn
   0.5841619571176274    0.0833293199483298    0.0850059588667557 Mn
   0.5841619571092721    0.0833293199568966    0.4183392922126023 Mn
   0.5841619571009167    0.0833293199654634    0.7516726255584492 Mn
   0.5841619570967929    0.4166626532732357    0.0850059588667557 Mn
   0.5841619570884375    0.4166626532818025    0.4183392922126023 Mn
   0.5841619571219643    0.4166626532903694    0.7516726255584492 Mn
   0.5841619571173075    0.7499959866402788    0.0850059588667557 Mn
   0.5841619571094855    0.7499959866067082    0.4183392922126023 Mn
   0.5841619571011299    0.7499959866152753    0.7516726255584492 Mn
   0.9174952904593372    0.0833293199483298    0.0850059588667557 Mn
   0.9174952904509821    0.0833293199568966    0.4183392922126023 Mn
   0.9174952904426263    0.0833293199654634    0.7516726255584492 Mn
   0.9174952904385025    0.4166626532732357    0.0850059588667557 Mn
   0.9174952904301474    0.4166626532818025    0.4183392922126023 Mn
   0.9174952904217919    0.4166626532903694    0.7516726255584492 Mn
   0.9174952904171348    0.7499959866402788    0.0850059588667557 Mn
   0.9174952904511954    0.7499959866067082    0.4183392922126023 Mn
   0.9174952904428398    0.7499959866152753    0.7516726255584492 Mn
   0.0841553310497659    0.2499988873692366    0.0850007831876041 Mn
   0.0841553310414105    0.2499988873778034    0.4183341165334509 Mn
   0.0841553310330551    0.2499988873863702    0.7516674498792973 Mn
   0.0841553310708136    0.5833322206941425    0.0850007831876041 Mn
   0.0841553310624582    0.5833322207027093    0.4183341165334509 Mn
   0.0841553310541029    0.5833322207112761    0.7516674498792973 Mn
   0.0841553310494458    0.9166655540611857    0.0850007831876041 Mn
   0.0841553310416238    0.9166655540276151    0.4183341165334509 Mn
   0.0841553310332685    0.9166655540361819    0.7516674498792973 Mn
   0.4174886643914756    0.2499988873692366    0.0850007831876041 Mn
   0.4174886643831203    0.2499988873778034    0.4183341165334509 Mn
   0.4174886643747649    0.2499988873863702    0.7516674498792973 Mn
   0.4174886643706412    0.5833322206941425    0.0850007831876041 Mn
   0.4174886644041680    0.5833322207027093    0.4183341165334509 Mn
   0.4174886643958126    0.5833322207112761    0.7516674498792973 Mn
   0.4174886643911555    0.9166655540611857    0.0850007831876041 Mn
   0.4174886643833336    0.9166655540276151    0.4183341165334509 Mn
   0.4174886643749782    0.9166655540361819    0.7516674498792973 Mn
   0.7508219977331851    0.2499988873692366    0.0850007831876041 Mn
   0.7508219977248298    0.2499988873778034    0.4183341165334509 Mn
   0.7508219977164748    0.2499988873863702    0.7516674498792973 Mn
   0.7508219977123508    0.5833322206941425    0.0850007831876041 Mn
   0.7508219977039955    0.5833322207027093    0.4183341165334509 Mn
   0.7508219977375226    0.5833322207112761    0.7516674498792973 Mn
   0.7508219977328653    0.9166655540611857    0.0850007831876041 Mn
   0.7508219977250434    0.9166655540276151    0.4183341165334509 Mn
   0.7508219977166883    0.9166655540361819    0.7516674498792973 Mn
   0.2508252262957466    0.2499878406466320    0.0850085417635272 Mn
   0.2508252262869654    0.2499878406547342    0.4183418750676624 Mn
   0.2508252263204922    0.2499878406633010    0.7516752084135093 Mn
   0.2508252263167944    0.5833211739715377    0.0850085417635272 Mn
   0.2508252263080132    0.5833211739796400    0.4183418750676624 Mn
   0.2508252262996578    0.5833211739882069    0.7516752084135093 Mn
   0.2508252262954266    0.9166545073385809    0.0850085417635272 Mn
   0.2508252262871787    0.9166545073045459    0.4183418750676624 Mn
   0.2508252263207055    0.9166545073131128    0.7516752084135093 Mn
   0.5841585596374563    0.2499878406466320    0.0850085417635272 Mn
   0.5841585596286751    0.2499878406547342    0.4183418750676624 Mn
   0.5841585596203196    0.2499878406633010    0.7516752084135093 Mn
   0.5841585596585039    0.5833211739715377    0.0850085417635272 Mn
   0.5841585596497229    0.5833211739796400    0.4183418750676624 Mn
   0.5841585596413675    0.5833211739882069    0.7516752084135093 Mn
   0.5841585596371364    0.9166545073385809    0.0850085417635272 Mn
   0.5841585596288886    0.9166545073045459    0.4183418750676624 Mn
   0.5841585596205330    0.9166545073131128    0.7516752084135093 Mn
   0.9174918929791660    0.2499878406466320    0.0850085417635272 Mn
   0.9174918929703850    0.2499878406547342    0.4183418750676624 Mn
   0.9174918929620295    0.2499878406633010    0.7516752084135093 Mn
   0.9174918929583316    0.5833211739715377    0.0850085417635272 Mn
   0.9174918929914325    0.5833211739796400    0.4183418750676624 Mn
   0.9174918929830774    0.5833211739882069    0.7516752084135093 Mn
   0.9174918929788459    0.9166545073385809    0.0850085417635272 Mn
   0.9174918929705983    0.9166545073045459    0.4183418750676624 Mn
   0.9174918929622429    0.9166545073131128    0.7516752084135093 Mn
   0.0841714938525672    0.0833326180856172    0.2516582211027487 Mn
   0.0841714938437860    0.0833326180937193    0.5849915544068840 Mn
   0.0841714938359640    0.0833326180601490    0.9183248877527307 Mn
   0.0841714938317328    0.4166659514105230    0.2516582211027487 Mn
   0.0841714938648337    0.4166659514186253    0.5849915544068840 Mn
   0.0841714938564784    0.4166659514271920    0.9183248877527307 Mn
   0.0841714938527806    0.7499992847354290    0.2516582211027487 Mn
   0.0841714938439993    0.7499992847435313    0.5849915544068840 Mn
   0.0841714938356440    0.7499992847520980    0.9183248877527307 Mn
   0.4175048271942770    0.0833326180856172    0.2516582211027487 Mn
   0.4175048271854958    0.0833326180937193    0.5849915544068840 Mn
   0.4175048271776737    0.0833326180601490    0.9183248877527307 Mn
   0.4175048271734426    0.4166659514105230    0.2516582211027487 Mn
   0.4175048271646614    0.4166659514186253    0.5849915544068840 Mn
   0.4175048271981881    0.4166659514271920    0.9183248877527307 Mn
   0.4175048271944903    0.7499992847354290    0.2516582211027487 Mn
   0.4175048271857091    0.7499992847435313    0.5849915544068840 Mn
   0.4175048271773538    0.7499992847520980    0.9183248877527307 Mn
   0.7508381604941046    0.0833326180856172    0.2516582211027487 Mn
   0.7508381605272053    0.0833326180937193    0.5849915544068840 Mn
   0.7508381605193838    0.0833326180601490    0.9183248877527307 Mn
   0.7508381605151524    0.4166659514105230    0.2516582211027487 Mn
   0.7508381605063711    0.4166659514186253    0.5849915544068840 Mn
   0.7508381604980158    0.4166659514271920    0.9183248877527307 Mn
   0.7508381604943177    0.7499992847354290    0.2516582211027487 Mn
   0.7508381605274186    0.7499992847435313    0.5849915544068840 Mn
   0.7508381605190635    0.7499992847520980    0.9183248877527307 Mn
   0.2508365511840464    0.0833251178277582    0.2516626914416485 Mn
   0.2508365511752652    0.0833251178358604    0.5849960247457838 Mn
   0.2508365511674431    0.0833251178022900    0.9183293580916305 Mn
   0.2508365512050941    0.4166584511526641    0.2516626914416485 Mn
   0.2508365511963128    0.4166584511607663    0.5849960247457838 Mn
   0.2508365511879576    0.4166584511693330    0.9183293580916305 Mn
   0.2508365511842597    0.7499917844775700    0.2516626914416485 Mn
   0.2508365511754784    0.7499917844856719    0.5849960247457838 Mn
   0.2508365511671231    0.7499917844942391    0.9183293580916305 Mn
   0.5841698845257560    0.0833251178277582    0.2516626914416485 Mn
   0.5841698845169749    0.0833251178358604    0.5849960247457838 Mn
   0.5841698845091530    0.0833251178022900    0.9183293580916305 Mn
   0.5841698845049215    0.4166584511526641    0.2516626914416485 Mn
   0.5841698845380227    0.4166584511607663    0.5849960247457838 Mn
   0.5841698845296674    0.4166584511693330    0.9183293580916305 Mn
   0.5841698845259694    0.7499917844775700    0.2516626914416485 Mn
   0.5841698845171882    0.7499917844856719    0.5849960247457838 Mn
   0.5841698845088329    0.7499917844942391    0.9183293580916305 Mn
   0.9175032178674658    0.0833251178277582    0.2516626914416485 Mn
   0.9175032178586845    0.0833251178358604    0.5849960247457838 Mn
   0.9175032178508625    0.0833251178022900    0.9183293580916305 Mn
   0.9175032178466312    0.4166584511526641    0.2516626914416485 Mn
   0.9175032178378503    0.4166584511607663    0.5849960247457838 Mn
   0.9175032178713771    0.4166584511693330    0.9183293580916305 Mn
   0.9175032178676791    0.7499917844775700    0.2516626914416485 Mn
   0.9175032178588981    0.7499917844856719    0.5849960247457838 Mn
   0.9175032178505427    0.7499917844942391    0.9183293580916305 Mn
   0.0841754376782213    0.2499922513784443    0.2516674399540633 Mn
   0.0841754376694401    0.2499922513865465    0.5850007732581985 Mn
   0.0841754377029669    0.2499922513951133    0.9183341066040452 Mn
   0.0841754376987356    0.5833255847454872    0.2516674399540633 Mn
   0.0841754376904878    0.5833255847114525    0.5850007732581985 Mn
   0.0841754376821324    0.5833255847200192    0.9183341066040452 Mn
   0.0841754376779012    0.9166589180703932    0.2516674399540633 Mn
   0.0841754376691200    0.9166589180784954    0.5850007732581985 Mn
   0.0841754377031802    0.9166589180449252    0.9183341066040452 Mn
   0.4175087710199309    0.2499922513784443    0.2516674399540633 Mn
   0.4175087710111499    0.2499922513865465    0.5850007732581985 Mn
   0.4175087710027945    0.2499922513951133    0.9183341066040452 Mn
   0.4175087710404454    0.5833255847454872    0.2516674399540633 Mn
   0.4175087710321976    0.5833255847114525    0.5850007732581985 Mn
   0.4175087710238423    0.5833255847200192    0.9183341066040452 Mn
   0.4175087710196110    0.9166589180703932    0.2516674399540633 Mn
   0.4175087710108299    0.9166589180784954    0.5850007732581985 Mn
   0.4175087710030078    0.9166589180449252    0.9183341066040452 Mn
   0.7508421043616407    0.2499922513784443    0.2516674399540633 Mn
   0.7508421043528593    0.2499922513865465    0.5850007732581985 Mn
   0.7508421043445043    0.2499922513951133    0.9183341066040452 Mn
   0.7508421043402728    0.5833255847454872    0.2516674399540633 Mn
   0.7508421043739072    0.5833255847114525    0.5850007732581985 Mn
   0.7508421043655522    0.5833255847200192    0.9183341066040452 Mn
   0.7508421043613209    0.9166589180703932    0.2516674399540633 Mn
   0.7508421043525394    0.9166589180784954    0.5850007732581985 Mn
   0.7508421043447174    0.9166589180449252    0.9183341066040452 Mn
   0.2508412798161220    0.2500055630966195    0.2516733606827463 Mn
   0.2508412798073407    0.2500055631047217    0.5850066939868814 Mn
   0.2508412798408676    0.2500055631132885    0.9183400273327281 Mn
   0.2508412798371698    0.5833388964215253    0.2516733606827463 Mn
   0.2508412798283884    0.5833388964296276    0.5850066939868814 Mn
   0.2508412798200332    0.5833388964381943    0.9183400273327281 Mn
   0.2508412798158020    0.9166722297885684    0.2516733606827463 Mn
   0.2508412798075541    0.9166722297545336    0.5850066939868814 Mn
   0.2508412798410810    0.9166722297631001    0.9183400273327281 Mn
   0.5841746131578318    0.2500055630966195    0.2516733606827463 Mn
   0.5841746131490506    0.2500055631047217    0.5850066939868814 Mn
   0.5841746131406951    0.2500055631132885    0.9183400273327281 Mn
   0.5841746131369975    0.5833388964215253    0.2516733606827463 Mn
   0.5841746131700983    0.5833388964296276    0.5850066939868814 Mn
   0.5841746131617430    0.5833388964381943    0.9183400273327281 Mn
   0.5841746131575117    0.9166722297885684    0.2516733606827463 Mn
   0.5841746131492639    0.9166722297545336    0.5850066939868814 Mn
   0.5841746131409083    0.9166722297631001    0.9183400273327281 Mn
   0.9175079464995414    0.2500055630966195    0.2516733606827463 Mn