System = LMO
ISTART = 0
ICHARG = 2
ENCUT = 500
ISMEAR = 0
SIGMA = 0.05
NEDOS = 901
NCORE = 4
KPAR = 4

# AFM-A initialization of magnetic moments
ISPIN = 2
MAGMOM = 8*0 4 4 4 4 -4 -4 -4 -4 24*0

# On-site Coulomb energy U
LORBIT = 11
LDAU = .TRUE.
LDAUTYPE = 2
LDAUL = -1 2 -1
LDAUU = 0 3.5 0 # On-site Coulomb energy U added to every atom species
LDAUJ = 0 0.0 0
LMAXMIX = 4

# MD parameters
ISYM = 0
ISIF = 3
MDALGO=3               # Langevin thermostat
LANGEVIN_GAMMA = 1.0 1.0 1.0  # Langevin gamma for atoms
LANGEVIN_GAMMA_L=3.0   # Langevin gamma for lattice dof
PMASS=300              # fictional mass of lattice dof for Langevin thermostat
LATTICE_CONSTRAINTS = T T T   # no constratints on lattice dof
PSTRESS=0.001          # ambient pressure
POTIM =  0.5 # timestep in fs
IBRION = 0
SMASS = 0
TEBEG = 600 # start temp
TEEND = 1100 # end temp
NSW  =  125000 # heating rate is 8 K/ps
NBLOCK = 1
NWRITE = 1
NELM = 100
INIWAV = 1
IWAVPR = 1
LWAVE = .FALSE.
LCHARG = .FALSE.

# Machine learning
ML_MCONF = 2000
ML_LMLFF = .TRUE.
ML_ISTART = 1
ML_RCUT1 = 6.0 # Cutoff radius for the radial descriptor functions
ML_RCUT2 = 5.0 # Cutoff radius for the angular descriptor functions
