LaMnO3:                                 
   7.88000000000000     
     1.0204628808706224    0.0220762218579750   -0.0018774573438935
     0.0063740266596445    1.0080407799858164    0.0332529413100866
    -0.0048060559625005   -0.0054942343615774    1.0224812330091053
   La   Mn   O 
     8     8    24
Direct
 -0.2368971657481753  0.2229771533409695 -0.7406780711687441
  0.2869742392181942  0.2407279139753064 -0.7469099136948081
 -0.2379654699156735  0.7300817278112688 -0.7401555800250063
  0.7142421736788337  1.2119313916225027 -0.2470355409022471
  0.2528089226468813  0.7320207944145666 -0.7502887824450694
  0.2181354293436677  1.2072062587636905 -0.2311357086675969
  0.7227647217712058  0.7212226520459254 -0.2390506934002876
  0.2197704522529575  0.6868531153553877 -0.2301112329520821
 -0.0089409750741040  0.4767432720883897 -0.4861370128727738
  0.4924266548814235  0.4803741444327384 -0.4850224459784890
 -0.0041615194422594  0.9861226851768883 -0.4774734310537642
  0.4743282666670904  0.9826150601734153 -0.4901304074513877
 -0.0143449195197209  0.4665040961427179  0.0112967606914801
  0.4974836980755521  0.4769099570252246  0.0099110489296886
 -0.0189993055998003  0.9652527089766704  0.0075752256336063
  0.4999273045346980  0.9707007996789829  0.0140630619440317
  0.0128660345305436  0.3942870356035341 -0.7262892552505154
 -0.0266449479765891  0.2295065963458714 -0.4376979334859605
  0.7144471569310091  0.5104232027387142 -0.5364065553154844
  0.4518440169738502  0.5103613370740223 -0.7596076710283323
  0.5245411240269597  0.2156033077259000 -0.5270761466029961
  0.2519860282471350  0.4479752037149214 -0.4627493011014934
 -0.0641028768475423  0.9961014921136455 -0.7611967736386803
  0.0001338077602997  0.7329169861155577 -0.5345644574888865
  0.7453657029249456  0.9595573939965618 -0.4367280491741943
  0.5346709960328537  0.9170511814140357 -0.7504342090338814
  0.4678450868613345  0.7417853033078307 -0.4397774512870690
  0.2323406074049013  0.9995823327742831 -0.5282829321232178
 -0.0276728840057846  0.5381103522520621 -0.2511679557614594
 -0.0353457888163011  1.2222885303345641 -0.0565447814398995
 -0.2528655176079575  0.5181122040900008  0.0326524880475451
  0.5377253882567506  0.4347882247442265 -0.2425202786320866
  0.5298629643304017  1.2350286063973384  0.0638964245248053
  0.2267300910187897  0.4356071965508081 -0.0226583523072353
  0.0576024301134706  0.9273178534896224 -0.2285508812270932
  0.0112141596453583  0.7192582535892906  0.0539537204527932
 -0.2785494027826274  0.9437641076189881 -0.0490637181789886
  0.4557837689552440  1.0599330555843156 -0.2070602142470978
  0.4535753186034063  0.7290193722928301 -0.0290284281635895
  0.2488553721400175  0.9999128646183174  0.0836522808097206
Lattice velocities and vectors
           1
 -0.59361174E-03  0.29930925E-03 -0.32673048E-03
  0.20118836E-03 -0.67381616E-03  0.14009245E-02
  0.16770459E-03  0.80055980E-03  0.32291332E-03
  0.80409485E+01  0.17421751E+00 -0.14864069E-01
  0.50219954E-01  0.79430121E+01  0.26312914E+00
 -0.37872468E-01 -0.43295421E-01  0.80573110E+01
 
 -0.23391544E-02  0.31909625E-02 -0.32758264E-02
  0.15393192E-03 -0.33506180E-03 -0.74760435E-03
  0.23600790E-03 -0.33938759E-04 -0.25272787E-02
 -0.66686543E-03 -0.20554332E-02 -0.10058526E-02
 -0.10646342E-02 -0.14043438E-03  0.23640701E-02
 -0.12534071E-02 -0.75068935E-03  0.12132132E-02
  0.54219232E-03 -0.36781794E-03  0.10284661E-02
 -0.11714060E-02  0.24842230E-02  0.16439546E-02
  0.35210161E-02 -0.88589067E-04  0.23428476E-02
  0.16876992E-02  0.16122403E-02 -0.47313545E-02
  0.42074275E-03  0.52957702E-04 -0.42618633E-02
  0.40104031E-02 -0.15121615E-02  0.11758806E-02
  0.70058564E-03 -0.37345129E-02  0.44026541E-02
  0.27309209E-02 -0.16970607E-02  0.19321422E-02
 -0.20057476E-02 -0.16741569E-03 -0.15337978E-02
 -0.37035971E-02  0.52384653E-02  0.23208056E-02
 -0.93150060E-03  0.72798998E-02  0.15514828E-02
 -0.29609842E-02 -0.11429341E-01  0.62753184E-02
 -0.39663099E-02 -0.18080524E-02 -0.61762908E-02
 -0.14715651E-03  0.42551578E-02 -0.14199484E-02
  0.33797290E-03  0.11969199E-02  0.38118208E-02
  0.75887334E-02 -0.43748224E-03 -0.39561225E-03
  0.18687705E-03 -0.21969403E-02 -0.84980412E-02
  0.31969870E-02 -0.12398907E-01  0.90038497E-03
 -0.22935198E-03  0.22148623E-02  0.69094349E-03
 -0.58343048E-02 -0.44967281E-02  0.78464860E-02
  0.33678477E-02  0.61596695E-03 -0.79034423E-02
 -0.75021659E-02  0.85305675E-03 -0.45744402E-03
  0.20519652E-02  0.83030119E-02  0.31010362E-02
 -0.76607284E-02 -0.83248064E-03 -0.28767539E-02
  0.13738236E-02 -0.25637534E-02  0.37864149E-03
 -0.77496921E-03  0.42754407E-02  0.41857190E-02
  0.25922256E-02  0.17069705E-02 -0.72189622E-02
 -0.18364771E-02 -0.19293249E-02  0.15937720E-02
  0.12724429E-03  0.12395980E-02  0.11747214E-02
  0.21539789E-02  0.65775538E-02 -0.50124900E-02
 -0.14064172E-02  0.34203784E-02  0.21225967E-02
  0.41950463E-03  0.77676884E-02  0.88829159E-03
  0.33102556E-02 -0.53250242E-02  0.81616860E-02
  0.18571134E-02 -0.55260429E-03  0.14394870E-02
 
           1
  0.500000000000000     
  0.10000000E+01  0.00000000E+00  0.00000000E+00  0.00000000E+00
  0.76295512E+00  0.22318011E+00  0.25911175E+00
  0.28698373E+00  0.24070637E+00  0.25304441E+00
  0.76204849E+00  0.73007843E+00  0.25968772E+00
  0.71420124E+00  0.21180259E+00  0.75290617E+00
  0.25274345E+00  0.73201419E+00  0.24985802E+00
  0.21805813E+00  0.20716112E+00  0.76894091E+00
  0.72279889E+00  0.72119910E+00  0.76101396E+00
  0.21969708E+00  0.68701163E+00  0.76998547E+00
  0.99127872E+00  0.47673367E+00  0.51400909E+00
  0.49252959E+00  0.48047176E+00  0.51468095E+00
  0.99586339E+00  0.98612403E+00  0.52226210E+00
  0.47457863E+00  0.98251480E+00  0.50994630E+00
  0.98570143E+00  0.46626953E+00  0.11577715E-01
  0.49765478E+00  0.47680005E+00  0.10034854E-01
  0.98087558E+00  0.96524440E+00  0.74800858E-02
  0.49969554E+00  0.97103636E+00  0.14195695E-01
  0.12805621E-01  0.39474706E+00  0.27379189E+00
  0.97317733E+00  0.22879328E+00  0.56271445E+00
  0.71419942E+00  0.51031275E+00  0.46321332E+00
  0.45183274E+00  0.51062891E+00  0.24029545E+00
  0.52456277E+00  0.21567945E+00  0.47315795E+00
  0.25245804E+00  0.44793719E+00  0.53722826E+00
  0.93590716E+00  0.99596013E+00  0.23828051E+00
  0.33788726E-03  0.73213246E+00  0.46551741E+00
  0.74535075E+00  0.95969735E+00  0.56331023E+00
  0.53431224E+00  0.91677869E+00  0.25006095E+00
  0.46805200E+00  0.74181686E+00  0.55973145E+00
  0.23187356E+00  0.99964610E+00  0.47168574E+00
  0.97245228E+00  0.53863123E+00  0.74900770E+00
  0.96417728E+00  0.22224562E+00  0.94327722E+00
  0.74722106E+00  0.51794908E+00  0.32681472E-01
  0.53767668E+00  0.43505979E+00  0.75773051E+00
  0.53002140E+00  0.23513012E+00  0.63445426E-01
  0.22661712E+00  0.43548879E+00  0.97744421E+00
  0.57610185E-01  0.92739610E+00  0.77151948E+00
  0.11344014E-01  0.71966768E+00  0.53629537E-01
  0.72136237E+00  0.94398203E+00  0.95106072E+00
  0.45580699E+00  0.60421724E-01  0.79297899E+00
  0.45378570E+00  0.72868238E+00  0.97148944E+00
  0.24897151E+00  0.99987603E+00  0.83743026E-01
  0.00000000E+00  0.00000000E+00  0.00000000E+00
  0.00000000E+00  0.00000000E+00  0.00000000E+00
  0.00000000E+00  0.00000000E+00  0.00000000E+00
  0.00000000E+00  0.00000000E+00  0.00000000E+00
  0.00000000E+00  0.00000000E+00  0.00000000E+00
  0.00000000E+00  0.00000000E+00  0.00000000E+00
  0.00000000E+00  0.00000000E+00  0.00000000E+00
  0.00000000E+00  0.00000000E+00  0.00000000E+00
  0.00000000E+00  0.00000000E+00  0.00000000E+00
  0.00000000E+00  0.00000000E+00  0.00000000E+00
  0.00000000E+00  0.00000000E+00  0.00000000E+00
  0.00000000E+00  0.00000000E+00  0.00000000E+00
  0.00000000E+00  0.00000000E+00  0.00000000E+00
  0.00000000E+00  0.00000000E+00  0.00000000E+00
  0.00000000E+00  0.00000000E+00  0.00000000E+00
  0.00000000E+00  0.00000000E+00  0.00000000E+00
  0.00000000E+00  0.00000000E+00  0.00000000E+00
  0.00000000E+00  0.00000000E+00  0.00000000E+00
  0.00000000E+00  0.00000000E+00  0.00000000E+00
  0.00000000E+00  0.00000000E+00  0.00000000E+00
  0.00000000E+00  0.00000000E+00  0.00000000E+00
  0.00000000E+00  0.00000000E+00  0.00000000E+00
  0.00000000E+00  0.00000000E+00  0.00000000E+00
  0.00000000E+00  0.00000000E+00  0.00000000E+00
  0.00000000E+00  0.00000000E+00  0.00000000E+00
  0.00000000E+00  0.00000000E+00  0.00000000E+00
  0.00000000E+00  0.00000000E+00  0.00000000E+00
  0.00000000E+00  0.00000000E+00  0.00000000E+00
  0.00000000E+00  0.00000000E+00  0.00000000E+00
  0.00000000E+00  0.00000000E+00  0.00000000E+00
  0.00000000E+00  0.00000000E+00  0.00000000E+00
  0.00000000E+00  0.00000000E+00  0.00000000E+00
  0.00000000E+00  0.00000000E+00  0.00000000E+00
  0.00000000E+00  0.00000000E+00  0.00000000E+00
  0.00000000E+00  0.00000000E+00  0.00000000E+00
  0.00000000E+00  0.00000000E+00  0.00000000E+00
  0.00000000E+00  0.00000000E+00  0.00000000E+00
  0.00000000E+00  0.00000000E+00  0.00000000E+00
  0.00000000E+00  0.00000000E+00  0.00000000E+00
  0.00000000E+00  0.00000000E+00  0.00000000E+00
  0.00000000E+00  0.00000000E+00  0.00000000E+00
  0.00000000E+00  0.00000000E+00  0.00000000E+00
  0.00000000E+00  0.00000000E+00  0.00000000E+00
  0.00000000E+00  0.00000000E+00  0.00000000E+00
  0.00000000E+00  0.00000000E+00  0.00000000E+00
  0.00000000E+00  0.00000000E+00  0.00000000E+00
  0.00000000E+00  0.00000000E+00  0.00000000E+00
  0.00000000E+00  0.00000000E+00  0.00000000E+00
  0.00000000E+00  0.00000000E+00  0.00000000E+00
  0.00000000E+00  0.00000000E+00  0.00000000E+00
  0.00000000E+00  0.00000000E+00  0.00000000E+00
  0.00000000E+00  0.00000000E+00  0.00000000E+00
  0.00000000E+00  0.00000000E+00  0.00000000E+00
  0.00000000E+00  0.00000000E+00  0.00000000E+00
  0.00000000E+00  0.00000000E+00  0.00000000E+00
  0.00000000E+00  0.00000000E+00  0.00000000E+00
  0.00000000E+00  0.00000000E+00  0.00000000E+00
  0.00000000E+00  0.00000000E+00  0.00000000E+00
  0.00000000E+00  0.00000000E+00  0.00000000E+00
  0.00000000E+00  0.00000000E+00  0.00000000E+00
  0.00000000E+00  0.00000000E+00  0.00000000E+00
  0.00000000E+00  0.00000000E+00  0.00000000E+00
  0.00000000E+00  0.00000000E+00  0.00000000E+00
  0.00000000E+00  0.00000000E+00  0.00000000E+00
  0.00000000E+00  0.00000000E+00  0.00000000E+00
  0.00000000E+00  0.00000000E+00  0.00000000E+00
  0.00000000E+00  0.00000000E+00  0.00000000E+00
  0.00000000E+00  0.00000000E+00  0.00000000E+00
  0.00000000E+00  0.00000000E+00  0.00000000E+00
  0.00000000E+00  0.00000000E+00  0.00000000E+00
  0.00000000E+00  0.00000000E+00  0.00000000E+00
  0.00000000E+00  0.00000000E+00  0.00000000E+00
  0.00000000E+00  0.00000000E+00  0.00000000E+00
  0.00000000E+00  0.00000000E+00  0.00000000E+00
  0.00000000E+00  0.00000000E+00  0.00000000E+00
  0.00000000E+00  0.00000000E+00  0.00000000E+00
  0.00000000E+00  0.00000000E+00  0.00000000E+00
  0.00000000E+00  0.00000000E+00  0.00000000E+00
  0.00000000E+00  0.00000000E+00  0.00000000E+00
  0.00000000E+00  0.00000000E+00  0.00000000E+00
